.Version 9.2.2 of ABINIT

 ABINIT is a project of the Universite Catholique de Louvain,
 Corning Inc. and other collaborators, see ~abinit/doc/developers/contributors.txt .
 acknowledgments of the ABINIT effort.

.Starting date : Mon 15 Feb 2021.
- ( at 22h22 )

- input  file    -> abinit.in
- output file    -> abinit.out
- root for input  files -> abiniti
- root for output files -> abinito

- inpspheads : Reading pseudopotential header in XML form from
-   /Users/uthpala/abinit/pseudo-dojo/paw_pw_standard/Ni.xml
- inpspheads : Reading pseudopotential header in XML form from
-   /Users/uthpala/abinit/pseudo-dojo/paw_pw_standard/O.xml

 DATASET    1 : space group Fm -3 m (#225); Bravais cF (face-center cubic)
     intxc =       0    ionmov =       0      iscf =      17    lmnmax =      18
     lnmax =       6     mgfft =      27  mpssoang =       3    mqgrid =    3001
     natom =       2  nloc_mem =       2    nspden =       1   nspinor =       1
    nsppol =       1      nsym =      48    n1xccc =       1    ntypat =       2
    occopt =       1   xclevel =       1
-    mband =          15        mffmem =           1         mkmem =          91
       mpw =         736          nfft =       19683          nkpt =         182
Pmy_natom=         1
 PAW method is used; the additional fine FFT grid is defined by:
   mgfftf=        30    nfftf =     27000
  Rough estimation (10% accuracy) of disk space for files :

 DATASET    2 : space group Fm -3 m (#225); Bravais cF (face-center cubic)
     intxc =       0    ionmov =       0      iscf =      -2    lmnmax =      18
     lnmax =       6     mgfft =      27  mpssoang =       3    mqgrid =    3001
     natom =       2  nloc_mem =       2    nspden =       1   nspinor =       1
    nsppol =       1      nsym =      48    n1xccc =       1    ntypat =       2
    occopt =       1   xclevel =       1
-    mband =          15        mffmem =           1         mkmem =         241
       mpw =         745          nfft =       19683          nkpt =         481
Pmy_natom=         1
 PAW method is used; the additional fine FFT grid is defined by:
   mgfftf=        30    nfftf =     27000
  Rough estimation (10% accuracy) of disk space for files :

------------- Echo of variables that govern the present computation ------------
-
- outvars: echo of selected default values
-   iomode0 =  0 , fftalg0 =312 , wfoptalg0 = 10
-
- outvars: echo of global parameters not present in the input file
-  max_nthreads =    4
-
 -outvars: echo values of preprocessed input variables --------
            acell      2.3144326326E+00  2.3144326326E+00  2.3144326326E+00 Bohr
              amu      5.86900000E+01  1.59994000E+01
        autoparal           1
          chkprim           0
      chksymbreak           0
           diemac      9.00000000E+00
             ecut      2.50000000E+01 Hartree
           ecutsm      5.00000000E-01 Hartree
-          fftalg         312
           getden1          0
           getden2          1
           iatsph2       1    2
             iscf1         17
             iscf2         -2
           istwfk2       2    0    0    0    0    0    0    0    0    0
                         0    0    0    0    0    0    0    0    0    0
                         0    0    0    0    0    0    0    0    0    0
                         0    0    0    0    0    0    0    0    0    0
                         0    0    0    0    0    0    0    0    0    0
                       outvar_i_n : Printing only first  50 k-points.
           jdtset        1    2
              kpt1     4.16666667E-02  4.16666667E-02  4.16666667E-02
                       1.25000000E-01  4.16666667E-02  4.16666667E-02
                       2.08333333E-01  4.16666667E-02  4.16666667E-02
                       2.91666667E-01  4.16666667E-02  4.16666667E-02
                       3.75000000E-01  4.16666667E-02  4.16666667E-02
                       4.58333333E-01  4.16666667E-02  4.16666667E-02
                      -4.58333333E-01  4.16666667E-02  4.16666667E-02
                      -3.75000000E-01  4.16666667E-02  4.16666667E-02
                      -2.91666667E-01  4.16666667E-02  4.16666667E-02
                      -2.08333333E-01  4.16666667E-02  4.16666667E-02
                      -1.25000000E-01  4.16666667E-02  4.16666667E-02
                      -4.16666667E-02  4.16666667E-02  4.16666667E-02
                       1.25000000E-01  1.25000000E-01  4.16666667E-02
                       2.08333333E-01  1.25000000E-01  4.16666667E-02
                       2.91666667E-01  1.25000000E-01  4.16666667E-02
                       3.75000000E-01  1.25000000E-01  4.16666667E-02
                       4.58333333E-01  1.25000000E-01  4.16666667E-02
                      -4.58333333E-01  1.25000000E-01  4.16666667E-02
                      -3.75000000E-01  1.25000000E-01  4.16666667E-02
                      -2.91666667E-01  1.25000000E-01  4.16666667E-02
                      -2.08333333E-01  1.25000000E-01  4.16666667E-02
                      -1.25000000E-01  1.25000000E-01  4.16666667E-02
                      -4.16666667E-02  1.25000000E-01  4.16666667E-02
                       2.08333333E-01  2.08333333E-01  4.16666667E-02
                       2.91666667E-01  2.08333333E-01  4.16666667E-02
                       3.75000000E-01  2.08333333E-01  4.16666667E-02
                       4.58333333E-01  2.08333333E-01  4.16666667E-02
                      -4.58333333E-01  2.08333333E-01  4.16666667E-02
                      -3.75000000E-01  2.08333333E-01  4.16666667E-02
                      -2.91666667E-01  2.08333333E-01  4.16666667E-02
                      -2.08333333E-01  2.08333333E-01  4.16666667E-02
                      -1.25000000E-01  2.08333333E-01  4.16666667E-02
                      -4.16666667E-02  2.08333333E-01  4.16666667E-02
                       2.91666667E-01  2.91666667E-01  4.16666667E-02
                       3.75000000E-01  2.91666667E-01  4.16666667E-02
                       4.58333333E-01  2.91666667E-01  4.16666667E-02
                      -4.58333333E-01  2.91666667E-01  4.16666667E-02
                      -3.75000000E-01  2.91666667E-01  4.16666667E-02
                      -2.91666667E-01  2.91666667E-01  4.16666667E-02
                      -2.08333333E-01  2.91666667E-01  4.16666667E-02
                      -1.25000000E-01  2.91666667E-01  4.16666667E-02
                      -4.16666667E-02  2.91666667E-01  4.16666667E-02
                       3.75000000E-01  3.75000000E-01  4.16666667E-02
                       4.58333333E-01  3.75000000E-01  4.16666667E-02
                      -4.58333333E-01  3.75000000E-01  4.16666667E-02
                      -3.75000000E-01  3.75000000E-01  4.16666667E-02
                      -2.91666667E-01  3.75000000E-01  4.16666667E-02
                      -2.08333333E-01  3.75000000E-01  4.16666667E-02
                      -1.25000000E-01  3.75000000E-01  4.16666667E-02
                      -4.16666667E-02  3.75000000E-01  4.16666667E-02
              kpt2     0.00000000E+00  0.00000000E+00  0.00000000E+00
                       6.25000000E-03  0.00000000E+00  6.25000000E-03
                       1.25000000E-02  0.00000000E+00  1.25000000E-02
                       1.87500000E-02  0.00000000E+00  1.87500000E-02
                       2.50000000E-02  0.00000000E+00  2.50000000E-02
                       3.12500000E-02  0.00000000E+00  3.12500000E-02
                       3.75000000E-02  0.00000000E+00  3.75000000E-02
                       4.37500000E-02  0.00000000E+00  4.37500000E-02
                       5.00000000E-02  0.00000000E+00  5.00000000E-02
                       5.62500000E-02  0.00000000E+00  5.62500000E-02
                       6.25000000E-02  0.00000000E+00  6.25000000E-02
                       6.87500000E-02  0.00000000E+00  6.87500000E-02
                       7.50000000E-02  0.00000000E+00  7.50000000E-02
                       8.12500000E-02  0.00000000E+00  8.12500000E-02
                       8.75000000E-02  0.00000000E+00  8.75000000E-02
                       9.37500000E-02  0.00000000E+00  9.37500000E-02
                       1.00000000E-01  0.00000000E+00  1.00000000E-01
                       1.06250000E-01  0.00000000E+00  1.06250000E-01
                       1.12500000E-01  0.00000000E+00  1.12500000E-01
                       1.18750000E-01  0.00000000E+00  1.18750000E-01
                       1.25000000E-01  0.00000000E+00  1.25000000E-01
                       1.31250000E-01  0.00000000E+00  1.31250000E-01
                       1.37500000E-01  0.00000000E+00  1.37500000E-01
                       1.43750000E-01  0.00000000E+00  1.43750000E-01
                       1.50000000E-01  0.00000000E+00  1.50000000E-01
                       1.56250000E-01  0.00000000E+00  1.56250000E-01
                       1.62500000E-01  0.00000000E+00  1.62500000E-01
                       1.68750000E-01  0.00000000E+00  1.68750000E-01
                       1.75000000E-01  0.00000000E+00  1.75000000E-01
                       1.81250000E-01  0.00000000E+00  1.81250000E-01
                       1.87500000E-01  0.00000000E+00  1.87500000E-01
                       1.93750000E-01  0.00000000E+00  1.93750000E-01
                       2.00000000E-01  0.00000000E+00  2.00000000E-01
                       2.06250000E-01  0.00000000E+00  2.06250000E-01
                       2.12500000E-01  0.00000000E+00  2.12500000E-01
                       2.18750000E-01  0.00000000E+00  2.18750000E-01
                       2.25000000E-01  0.00000000E+00  2.25000000E-01
                       2.31250000E-01  0.00000000E+00  2.31250000E-01
                       2.37500000E-01  0.00000000E+00  2.37500000E-01
                       2.43750000E-01  0.00000000E+00  2.43750000E-01
                       2.50000000E-01  0.00000000E+00  2.50000000E-01
                       2.56250000E-01  0.00000000E+00  2.56250000E-01
                       2.62500000E-01  0.00000000E+00  2.62500000E-01
                       2.68750000E-01  0.00000000E+00  2.68750000E-01
                       2.75000000E-01  0.00000000E+00  2.75000000E-01
                       2.81250000E-01  0.00000000E+00  2.81250000E-01
                       2.87500000E-01  0.00000000E+00  2.87500000E-01
                       2.93750000E-01  0.00000000E+00  2.93750000E-01
                       3.00000000E-01  0.00000000E+00  3.00000000E-01
                       3.06250000E-01  0.00000000E+00  3.06250000E-01
                       outvar_i_n : Printing only first  50 k-points.
           kptopt1          1
           kptopt2         -6
         kptrlatt       12    0    0      0   12    0      0    0   12
          kptrlen1     6.65896818E+01
          kptrlen2     3.00000000E+01
P           mkmem1         91
P           mkmem2        241
            natom           2
           natsph2       2
            nband1         15
            nband2         15
           nbdbuf1          0
           nbdbuf2          2
           ndtset           2
            ngfft          27      27      27
          ngfftdg          30      30      30
[...]
   0.23516    0.29432    0.31354    0.31359    0.31544    0.57405    0.73055
 kpt# 474, nband= 15, wtk=  1.00000, kpt=  0.5000  0.0219  0.5219 (reduced coord)
  -3.41873   -1.98047   -1.97979   -1.97977   -0.34701    0.08184    0.17796    0.17815
   0.23468    0.29402    0.31355    0.31359    0.31537    0.57370    0.73056
 kpt# 475, nband= 15, wtk=  1.00000, kpt=  0.5000  0.0188  0.5188 (reduced coord)
  -3.41873   -1.98048   -1.97979   -1.97977   -0.34703    0.08178    0.17837    0.17852
   0.23426    0.29375    0.31356    0.31359    0.31531    0.57340    0.73058
 kpt# 476, nband= 15, wtk=  1.00000, kpt=  0.5000  0.0156  0.5156 (reduced coord)
  -3.41873   -1.98048   -1.97978   -1.97978   -0.34705    0.08173    0.17873    0.17883
   0.23390    0.29352    0.31357    0.31359    0.31526    0.57314    0.73060
 kpt# 477, nband= 15, wtk=  1.00000, kpt=  0.5000  0.0125  0.5125 (reduced coord)
  -3.41873   -1.98048   -1.97978   -1.97978   -0.34707    0.08169    0.17903    0.17909
   0.23360    0.29333    0.31358    0.31359    0.31522    0.57293    0.73061
 kpt# 478, nband= 15, wtk=  1.00000, kpt=  0.5000  0.0094  0.5094 (reduced coord)
  -3.41873   -1.98048   -1.97978   -1.97978   -0.34708    0.08165    0.17926    0.17930
   0.23336    0.29318    0.31358    0.31359    0.31519    0.57277    0.73061
 kpt# 479, nband= 15, wtk=  1.00000, kpt=  0.5000  0.0063  0.5063 (reduced coord)
  -3.41873   -1.98048   -1.97978   -1.97978   -0.34709    0.08163    0.17942    0.17944
   0.23319    0.29307    0.31359    0.31359    0.31517    0.57265    0.73062
 kpt# 480, nband= 15, wtk=  1.00000, kpt=  0.5000  0.0031  0.5031 (reduced coord)
  -3.41873   -1.98048   -1.97978   -1.97978   -0.34709    0.08162    0.17952    0.17953
   0.23309    0.29301    0.31359    0.31359    0.31515    0.57258    0.73062
 kpt# 481, nband= 15, wtk=  1.00000, kpt=  0.5000  0.0000  0.5000 (reduced coord)
  -3.41873   -1.98048   -1.97978   -1.97978   -0.34709    0.08161    0.17956    0.17956
   0.23305    0.29299    0.31359    0.31359    0.31515    0.57256    0.73063

== END DATASET(S) ==============================================================

 -outvars: echo values of variables after computation  --------
            acell      2.3144326326E+00  2.3144326326E+00  2.3144326326E+00 Bohr
              amu      5.86900000E+01  1.59994000E+01
        autoparal           1
          chkprim           0
      chksymbreak           0
           diemac      9.00000000E+00
             ecut      2.50000000E+01 Hartree
           ecutsm      5.00000000E-01 Hartree
           etotal1    -1.8708463500E+02
            fcart1    -0.0000000000E+00 -0.0000000000E+00 -0.0000000000E+00
                      -0.0000000000E+00 -0.0000000000E+00 -0.0000000000E+00
-          fftalg         312
           getden1          0
           getden2          1
           iatsph2       1    2
             iscf1         17
             iscf2         -2
           istwfk2       2    0    0    0    0    0    0    0    0    0
                         0    0    0    0    0    0    0    0    0    0
                         0    0    0    0    0    0    0    0    0    0
                         0    0    0    0    0    0    0    0    0    0
                         0    0    0    0    0    0    0    0    0    0
                       outvar_i_n : Printing only first  50 k-points.
           jdtset        1    2
              kpt1     4.16666667E-02  4.16666667E-02  4.16666667E-02
                       1.25000000E-01  4.16666667E-02  4.16666667E-02
                       2.08333333E-01  4.16666667E-02  4.16666667E-02
                       2.91666667E-01  4.16666667E-02  4.16666667E-02
                       3.75000000E-01  4.16666667E-02  4.16666667E-02
                       4.58333333E-01  4.16666667E-02  4.16666667E-02
                      -4.58333333E-01  4.16666667E-02  4.16666667E-02
                      -3.75000000E-01  4.16666667E-02  4.16666667E-02
                      -2.91666667E-01  4.16666667E-02  4.16666667E-02
                      -2.08333333E-01  4.16666667E-02  4.16666667E-02
                      -1.25000000E-01  4.16666667E-02  4.16666667E-02
                      -4.16666667E-02  4.16666667E-02  4.16666667E-02
                       1.25000000E-01  1.25000000E-01  4.16666667E-02
                       2.08333333E-01  1.25000000E-01  4.16666667E-02
                       2.91666667E-01  1.25000000E-01  4.16666667E-02
                       3.75000000E-01  1.25000000E-01  4.16666667E-02
                       4.58333333E-01  1.25000000E-01  4.16666667E-02
                      -4.58333333E-01  1.25000000E-01  4.16666667E-02
                      -3.75000000E-01  1.25000000E-01  4.16666667E-02
                      -2.91666667E-01  1.25000000E-01  4.16666667E-02
                      -2.08333333E-01  1.25000000E-01  4.16666667E-02
                      -1.25000000E-01  1.25000000E-01  4.16666667E-02
                      -4.16666667E-02  1.25000000E-01  4.16666667E-02
                       2.08333333E-01  2.08333333E-01  4.16666667E-02
                       2.91666667E-01  2.08333333E-01  4.16666667E-02
                       3.75000000E-01  2.08333333E-01  4.16666667E-02
                       4.58333333E-01  2.08333333E-01  4.16666667E-02
                      -4.58333333E-01  2.08333333E-01  4.16666667E-02
                      -3.75000000E-01  2.08333333E-01  4.16666667E-02
                      -2.91666667E-01  2.08333333E-01  4.16666667E-02
                      -2.08333333E-01  2.08333333E-01  4.16666667E-02
                      -1.25000000E-01  2.08333333E-01  4.16666667E-02
                      -4.16666667E-02  2.08333333E-01  4.16666667E-02
                       2.91666667E-01  2.91666667E-01  4.16666667E-02
                       3.75000000E-01  2.91666667E-01  4.16666667E-02
                       4.58333333E-01  2.91666667E-01  4.16666667E-02
                      -4.58333333E-01  2.91666667E-01  4.16666667E-02
                      -3.75000000E-01  2.91666667E-01  4.16666667E-02
                      -2.91666667E-01  2.91666667E-01  4.16666667E-02
                      -2.08333333E-01  2.91666667E-01  4.16666667E-02
                      -1.25000000E-01  2.91666667E-01  4.16666667E-02
                      -4.16666667E-02  2.91666667E-01  4.16666667E-02
                       3.75000000E-01  3.75000000E-01  4.16666667E-02
                       4.58333333E-01  3.75000000E-01  4.16666667E-02
                      -4.58333333E-01  3.75000000E-01  4.16666667E-02
                      -3.75000000E-01  3.75000000E-01  4.16666667E-02
                      -2.91666667E-01  3.75000000E-01  4.16666667E-02
                      -2.08333333E-01  3.75000000E-01  4.16666667E-02
                      -1.25000000E-01  3.75000000E-01  4.16666667E-02
                      -4.16666667E-02  3.75000000E-01  4.16666667E-02
              kpt2     0.00000000E+00  0.00000000E+00  0.00000000E+00
                       6.25000000E-03  0.00000000E+00  6.25000000E-03
                       1.25000000E-02  0.00000000E+00  1.25000000E-02
                       1.87500000E-02  0.00000000E+00  1.87500000E-02
                       2.50000000E-02  0.00000000E+00  2.50000000E-02
                       3.12500000E-02  0.00000000E+00  3.12500000E-02
                       3.75000000E-02  0.00000000E+00  3.75000000E-02
                       4.37500000E-02  0.00000000E+00  4.37500000E-02
                       5.00000000E-02  0.00000000E+00  5.00000000E-02
                       5.62500000E-02  0.00000000E+00  5.62500000E-02
                       6.25000000E-02  0.00000000E+00  6.25000000E-02
                       6.87500000E-02  0.00000000E+00  6.87500000E-02
                       7.50000000E-02  0.00000000E+00  7.50000000E-02
                       8.12500000E-02  0.00000000E+00  8.12500000E-02
                       8.75000000E-02  0.00000000E+00  8.75000000E-02
                       9.37500000E-02  0.00000000E+00  9.37500000E-02
                       1.00000000E-01  0.00000000E+00  1.00000000E-01
                       1.06250000E-01  0.00000000E+00  1.06250000E-01
                       1.12500000E-01  0.00000000E+00  1.12500000E-01
                       1.18750000E-01  0.00000000E+00  1.18750000E-01
                       1.25000000E-01  0.00000000E+00  1.25000000E-01
                       1.31250000E-01  0.00000000E+00  1.31250000E-01
                       1.37500000E-01  0.00000000E+00  1.37500000E-01
                       1.43750000E-01  0.00000000E+00  1.43750000E-01
                       1.50000000E-01  0.00000000E+00  1.50000000E-01
                       1.56250000E-01  0.00000000E+00  1.56250000E-01
                       1.62500000E-01  0.00000000E+00  1.62500000E-01
                       1.68750000E-01  0.00000000E+00  1.68750000E-01
                       1.75000000E-01  0.00000000E+00  1.75000000E-01
                       1.81250000E-01  0.00000000E+00  1.81250000E-01
                       1.87500000E-01  0.00000000E+00  1.87500000E-01
                       1.93750000E-01  0.00000000E+00  1.93750000E-01
                       2.00000000E-01  0.00000000E+00  2.00000000E-01
                       2.06250000E-01  0.00000000E+00  2.06250000E-01
                       2.12500000E-01  0.00000000E+00  2.12500000E-01
                       2.18750000E-01  0.00000000E+00  2.18750000E-01
                       2.25000000E-01  0.00000000E+00  2.25000000E-01
                       2.31250000E-01  0.00000000E+00  2.31250000E-01
                       2.37500000E-01  0.00000000E+00  2.37500000E-01
                       2.43750000E-01  0.00000000E+00  2.43750000E-01
                       2.50000000E-01  0.00000000E+00  2.50000000E-01
                       2.56250000E-01  0.00000000E+00  2.56250000E-01
                       2.62500000E-01  0.00000000E+00  2.62500000E-01
                       2.68750000E-01  0.00000000E+00  2.68750000E-01
                       2.75000000E-01  0.00000000E+00  2.75000000E-01
                       2.81250000E-01  0.00000000E+00  2.81250000E-01
                       2.87500000E-01  0.00000000E+00  2.87500000E-01
                       2.93750000E-01  0.00000000E+00  2.93750000E-01
                       3.00000000E-01  0.00000000E+00  3.00000000E-01
                       3.06250000E-01  0.00000000E+00  3.06250000E-01
                       outvar_i_n : Printing only first  50 k-points.
           kptopt1          1
           kptopt2         -6
         kptrlatt       12    0    0      0   12    0      0    0   12
          kptrlen1     6.65896818E+01
          kptrlen2     3.00000000E+01
P           mkmem1         91
P           mkmem2        241
            natom           2
           natsph2       2
            nband1         15
            nband2         15
           nbdbuf1          0
           nbdbuf2          2
           ndtset           2
            ngfft          27      27      27
          ngfftdg          30      30      30
             nkpt1        182
             nkpt2        481
-           npkpt           2
            nstep          50
             nsym          48
           ntypat           2
              occ      2.000000  2.000000  2.000000  2.000000  2.000000  2.000000
                       2.000000  2.000000  2.000000  2.000000  2.000000  2.000000
                       0.000000  0.000000  0.000000
        optforces           1
        pawecutdg      3.00000000E+01 Hartree
           prtdos1          0
           prtdos2          3
          prtdosm1          0
          prtdosm2          1
        prtebands1          1
        prtebands2          2
        prtprocar1          0
        prtprocar2          1
            rprim      0.0000000000E+00  1.6953764711E+00  1.6953764711E+00
                       1.6953764711E+00  0.0000000000E+00  1.6953764711E+00
                       1.6953764711E+00  1.6953764711E+00  0.0000000000E+00
           shiftk      5.00000000E-01  5.00000000E-01  5.00000000E-01
          spgroup         225
           strten1     4.8074918668E-04  4.8074918668E-04  4.8074918668E-04
                       0.0000000000E+00  0.0000000000E+00  0.0000000000E+00
           symrel      1  0  0   0  1  0   0  0  1      -1  0  0   0 -1  0   0  0 -1
                       0 -1  1   0 -1  0   1 -1  0       0  1 -1   0  1  0  -1  1  0
                      -1  0  0  -1  0  1  -1  1  0       1  0  0   1  0 -1   1 -1  0
                       0  1 -1   1  0 -1   0  0 -1       0 -1  1  -1  0  1   0  0  1
                      -1  0  0  -1  1  0  -1  0  1       1  0  0   1 -1  0   1  0 -1
                       0 -1  1   1 -1  0   0 -1  0       0  1 -1  -1  1  0   0  1  0
                       1  0  0   0  0  1   0  1  0      -1  0  0   0  0 -1   0 -1  0
                       0  1 -1   0  0 -1   1  0 -1       0 -1  1   0  0  1  -1  0  1
                      -1  0  1  -1  1  0  -1  0  0       1  0 -1   1 -1  0   1  0  0
                       0 -1  0   1 -1  0   0 -1  1       0  1  0  -1  1  0   0  1 -1
                       1  0 -1   0  0 -1   0  1 -1      -1  0  1   0  0  1   0 -1  1
                       0  1  0   0  0  1   1  0  0       0 -1  0   0  0 -1  -1  0  0
                       1  0 -1   0  1 -1   0  0 -1      -1  0  1   0 -1  1   0  0  1
                       0 -1  0   0 -1  1   1 -1  0       0  1  0   0  1 -1  -1  1  0
                      -1  0  1  -1  0  0  -1  1  0       1  0 -1   1  0  0   1 -1  0
                       0  1  0   1  0  0   0  0  1       0 -1  0  -1  0  0   0  0 -1
                       0  0 -1   0  1 -1   1  0 -1       0  0  1   0 -1  1  -1  0  1
                       1 -1  0   0 -1  1   0 -1  0      -1  1  0   0  1 -1   0  1  0
                       0  0  1   1  0  0   0  1  0       0  0 -1  -1  0  0   0 -1  0
                      -1  1  0  -1  0  0  -1  0  1       1 -1  0   1  0  0   1  0 -1
                       0  0  1   0  1  0   1  0  0       0  0 -1   0 -1  0  -1  0  0
                       1 -1  0   0 -1  0   0 -1  1      -1  1  0   0  1  0   0  1 -1
                       0  0 -1   1  0 -1   0  1 -1       0  0  1  -1  0  1   0 -1  1
                      -1  1  0  -1  0  1  -1  0  0       1 -1  0   1  0 -1   1  0  0
           toldfe1     1.00000000E-08 Hartree
           toldfe2     0.00000000E+00 Hartree
           tolwfr1     0.00000000E+00
           tolwfr2     1.00000000E-12
            typat      1  2
           useylm           1
              wtk1       0.00116    0.00347    0.00347    0.00347    0.00347    0.00347
                         0.00347    0.00347    0.00347    0.00347    0.00347    0.00347
                         0.00347    0.00694    0.00694    0.00694    0.00694    0.00694
                         0.00694    0.00694    0.00694    0.00694    0.00694    0.00347
                         0.00694    0.00694    0.00694    0.00694    0.00694    0.00694
                         0.00694    0.00694    0.00694    0.00347    0.00694    0.00694
                         0.00694    0.00694    0.00694    0.00694    0.00694    0.00694
                         0.00347    0.00694    0.00694    0.00694    0.00694    0.00694
                         0.00694    0.00694
              wtk2       1.00000    1.00000    1.00000    1.00000    1.00000    1.00000
                         1.00000    1.00000    1.00000    1.00000    1.00000    1.00000
                         1.00000    1.00000    1.00000    1.00000    1.00000    1.00000
                         1.00000    1.00000    1.00000    1.00000    1.00000    1.00000
                         1.00000    1.00000    1.00000    1.00000    1.00000    1.00000
                         1.00000    1.00000    1.00000    1.00000    1.00000    1.00000
                         1.00000    1.00000    1.00000    1.00000    1.00000    1.00000
                         1.00000    1.00000    1.00000    1.00000    1.00000    1.00000
                         1.00000    1.00000
                       outvars : Printing only first  50 k-points.
           xangst      0.0000000000E+00  0.0000000000E+00  0.0000000000E+00
                       2.0764038561E+00  2.0764038561E+00  2.0764038561E+00
            xcart      0.0000000000E+00  0.0000000000E+00  0.0000000000E+00
                       3.9238346293E+00  3.9238346293E+00  3.9238346293E+00
             xred      0.0000000000E+00  0.0000000000E+00  0.0000000000E+00
                       5.0000000000E-01  5.0000000000E-01  5.0000000000E-01
            znucl       28.00000    8.00000

- Timing analysis has been suppressed with timopt=0

 Suggested references for the acknowledgment of ABINIT usage.

 Calculation completed.
.Delivered   0 WARNINGs and   0 COMMENTs to log file.