 vasp.5.4.4.18Apr17-6-g9f103f2a35 (build Dec 15 2019 17:04:58) complex

 executed on             LinuxIFC date 2020.02.14  17:10:30

 INCAR:
 POTCAR:    PAW Sr_sv 10Feb1998
 POTCAR:    PAW V 07Aug2001
 POTCAR:    PAW O 22Mar2012
 POTCAR:    PAW Sr_sv 10Feb1998
   VRHFIN =Sr: 3s3p4s

   TITEL  = PAW Sr_sv 10Feb1998
   POMASS =   87.620; ZVAL   =   10.000    mass and valenz
   ENMAX  =  226.327; ENMIN  =  169.745 eV

 POTCAR:    PAW V 07Aug2001
   VRHFIN =V: d4 s1

   TITEL  = PAW V 07Aug2001
   POMASS =   50.941; ZVAL   =    5.000    mass and valenz
   ENMAX  =  192.706; ENMIN  =  144.529 eV

 POTCAR:    PAW O 22Mar2012
   VRHFIN =O: s2p4

   TITEL  = PAW O 22Mar2012
   POMASS =   16.000; ZVAL   =    6.000    mass and valenz
   ENMAX  =  400.000; ENMIN  =  300.000 eV

  PAW Sr_sv 10Feb1998                   :
  PAW V 07Aug2001                       :
  PAW O 22Mar2012                       :

 POSCAR: Sr V O
  positions in direct lattice
 exchange correlation table for  LEXCH =       14
   RHO(1)=    0.500       N(1)  =     2000
   RHO(2)=  100.500       N(2)  =     4000

 ion  position               nearest neighbor table
   1  0.000  0.000  0.000-   3 2.72   4 2.72   5 2.72   4 2.72   5 2.72   3 2.72   5 2.72   5 2.72
                             3 2.72   4 2.72   4 2.72   3 2.72   2 3.33   2 3.33   2 3.33   2 3.33
   2  0.500  0.500  0.500-   3 1.92   4 1.92   5 1.92   3 1.92   4 1.92   5 1.92   1 3.33   1 3.33
                             1 3.33   1 3.33   1 3.33   1 3.33   1 3.33   1 3.33
   3  0.500  0.500  0.000-   2 1.92   2 1.92   1 2.72   1 2.72   1 2.72   1 2.72
   4  0.500  0.000  0.500-   2 1.92   2 1.92   1 2.72   1 2.72   1 2.72   1 2.72
   5  0.000  0.500  0.500-   2 1.92   2 1.92   1 2.72   1 2.72   1 2.72   1 2.72

  LATTYP: Found a simple cubic cell.
 ALAT       =     3.8465200000

  Lattice vectors:

 A1 = (   3.8465200000,   0.0000000000,   0.0000000000)
 A2 = (   0.0000000000,   3.8465200000,   0.0000000000)
 A3 = (   0.0000000000,   0.0000000000,   3.8465200000)

Analysis of symmetry for initial positions (statically):
 Subroutine PRICEL returns:
 Original cell was already a primitive cell.

 Routine SETGRP: Setting up the symmetry group for a
 simple cubic supercell.

 Subroutine GETGRP returns: Found 48 space group operations
 (whereof 48 operations were pure point group operations)
 out of a pool of 48 trial point group operations.

The static configuration has the point symmetry O_h .

Analysis of symmetry for dynamics (positions and initial velocities):
 Subroutine PRICEL returns:
 Original cell was already a primitive cell.

 Routine SETGRP: Setting up the symmetry group for a
 simple cubic supercell.

 Subroutine GETGRP returns: Found 48 space group operations
 (whereof 48 operations were pure point group operations)
 out of a pool of 48 trial point group operations.

The dynamic configuration has the point symmetry O_h .

 Subroutine INISYM returns: Found 48 space group operations
 (whereof 48 operations are pure point group operations),
 and found     1 'primitive' translations

 KPOINTS: CUB (simple cubic) G-X-M-G-R-X M-R
  interpolating k-points between supplied coordinates
  k-points in reciprocal lattice
Space group operators:
 irot       det(A)        alpha          n_x          n_y          n_z        tau_x        tau_y        tau_z
    1     1.000000     0.000000     1.000000     0.000000     0.000000     0.000000     0.000000     0.000000
    2    -1.000000     0.000000     1.000000     0.000000     0.000000     0.000000     0.000000     0.000000
    3     1.000000   120.000000    -0.577350    -0.577350    -0.577350     0.000000     0.000000     0.000000
    4    -1.000000   120.000000    -0.577350    -0.577350    -0.577350     0.000000     0.000000     0.000000
    5     1.000000   120.000000     0.577350     0.577350     0.577350     0.000000     0.000000     0.000000
    6    -1.000000   120.000000     0.577350     0.577350     0.577350     0.000000     0.000000     0.000000
    7     1.000000    90.000000     0.000000     0.000000    -1.000000     0.000000     0.000000     0.000000
    8    -1.000000    90.000000     0.000000     0.000000    -1.000000     0.000000     0.000000     0.000000
    9     1.000000   180.000000     0.000000     0.707107     0.707107     0.000000     0.000000     0.000000
   10    -1.000000   180.000000     0.000000     0.707107     0.707107     0.000000     0.000000     0.000000
   11     1.000000    90.000000     0.000000     1.000000     0.000000     0.000000     0.000000     0.000000
   12    -1.000000    90.000000     0.000000     1.000000     0.000000     0.000000     0.000000     0.000000
   13     1.000000   180.000000     0.000000     0.000000     1.000000     0.000000     0.000000     0.000000
   14    -1.000000   180.000000     0.000000     0.000000     1.000000     0.000000     0.000000     0.000000
   15     1.000000   120.000000    -0.577350     0.577350     0.577350     0.000000     0.000000     0.000000
   16    -1.000000   120.000000    -0.577350     0.577350     0.577350     0.000000     0.000000     0.000000
   17     1.000000   120.000000    -0.577350     0.577350    -0.577350     0.000000     0.000000     0.000000
   18    -1.000000   120.000000    -0.577350     0.577350    -0.577350     0.000000     0.000000     0.000000
   19     1.000000    90.000000     0.000000     0.000000     1.000000     0.000000     0.000000     0.000000
   20    -1.000000    90.000000     0.000000     0.000000     1.000000     0.000000     0.000000     0.000000
   21     1.000000    90.000000    -1.000000     0.000000     0.000000     0.000000     0.000000     0.000000
   22    -1.000000    90.000000    -1.000000     0.000000     0.000000     0.000000     0.000000     0.000000
   23     1.000000   180.000000     0.707107     0.000000     0.707107     0.000000     0.000000     0.000000
   24    -1.000000   180.000000     0.707107     0.000000     0.707107     0.000000     0.000000     0.000000
   25     1.000000   120.000000     0.577350    -0.577350     0.577350     0.000000     0.000000     0.000000
   26    -1.000000   120.000000     0.577350    -0.577350     0.577350     0.000000     0.000000     0.000000
   27     1.000000   120.000000    -0.577350    -0.577350     0.577350     0.000000     0.000000     0.000000
   28    -1.000000   120.000000    -0.577350    -0.577350     0.577350     0.000000     0.000000     0.000000
   29     1.000000   180.000000     1.000000     0.000000     0.000000     0.000000     0.000000     0.000000
   30    -1.000000   180.000000     1.000000     0.000000     0.000000     0.000000     0.000000     0.000000
   31     1.000000    90.000000     0.000000    -1.000000     0.000000     0.000000     0.000000     0.000000
   32    -1.000000    90.000000     0.000000    -1.000000     0.000000     0.000000     0.000000     0.000000
   33     1.000000   180.000000     0.707107     0.707107     0.000000     0.000000     0.000000     0.000000
   34    -1.000000   180.000000     0.707107     0.707107     0.000000     0.000000     0.000000     0.000000
   35     1.000000    90.000000     1.000000     0.000000     0.000000     0.000000     0.000000     0.000000
   36    -1.000000    90.000000     1.000000     0.000000     0.000000     0.000000     0.000000     0.000000
   37     1.000000   120.000000     0.577350    -0.577350    -0.577350     0.000000     0.000000     0.000000
   38    -1.000000   120.000000     0.577350    -0.577350    -0.577350     0.000000     0.000000     0.000000
   39     1.000000   180.000000     0.000000     1.000000     0.000000     0.000000     0.000000     0.000000
   40    -1.000000   180.000000     0.000000     1.000000     0.000000     0.000000     0.000000     0.000000
   41     1.000000   120.000000     0.577350     0.577350    -0.577350     0.000000     0.000000     0.000000
   42    -1.000000   120.000000     0.577350     0.577350    -0.577350     0.000000     0.000000     0.000000
   43     1.000000   180.000000     0.000000    -0.707107     0.707107     0.000000     0.000000     0.000000
   44    -1.000000   180.000000     0.000000    -0.707107     0.707107     0.000000     0.000000     0.000000
   45     1.000000   180.000000     0.707107    -0.707107     0.000000     0.000000     0.000000     0.000000
   46    -1.000000   180.000000     0.707107    -0.707107     0.000000     0.000000     0.000000     0.000000
   47     1.000000   180.000000     0.707107     0.000000    -0.707107     0.000000     0.000000     0.000000
   48    -1.000000   180.000000     0.707107     0.000000    -0.707107     0.000000     0.000000     0.000000

 SYSTEM =  SrVO3
 POSCAR =  Sr V O

 Startparameter for this run:
   NWRITE =      2    write-flag & timer
   PREC   = normal    normal or accurate (medium, high low for compatibility)
   ISTART =      1    job   : 0-new  1-cont  2-samecut
   ICHARG =     11    charge: 1-file 2-atom 10-const
   ISPIN  =      1    spin polarized calculation?
   LNONCOLLINEAR =      F non collinear calculations
   LSORBIT =      F    spin-orbit coupling
   INIWAV =      1    electr: 0-lowe 1-rand  2-diag
   LASPH  =      F    aspherical Exc in radial PAW
   METAGGA=      F    non-selfconsistent MetaGGA calc.

 Electronic Relaxation 1
   ENCUT  =  600.0 eV  44.10 Ry    6.64 a.u.   7.68  7.68  7.68*2*pi/ulx,y,z
   ENINI  =  600.0     initial cutoff
   ENAUG  =  605.4 eV  augmentation charge cutoff
   NELM   =     60;   NELMIN=  2; NELMDL=  0     # of ELM steps
   EDIFF  = 0.1E-03   stopping-criterion for ELM
   LREAL  =      F    real-space projection
   NLSPLINE    = F    spline interpolate recip. space projectors
   LCOMPAT=      F    compatible to vasp.4.4
   GGA_COMPAT  = T    GGA compatible to vasp.4.4-vasp.4.6
   LMAXPAW     = -100 max onsite density
   LMAXMIX     =    4 max onsite mixed and CHGCAR
   VOSKOWN=      0    Vosko Wilk Nusair interpolation
   ROPT   =    0.00000   0.00000   0.00000
 Ionic relaxation
   EDIFFG = 0.1E-02   stopping-criterion for IOM
   NSW    =      0    number of steps for IOM
   NBLOCK =      1;   KBLOCK =      1    inner block; outer block
   IBRION =     -1    ionic relax: 0-MD 1-quasi-New 2-CG
   NFREE  =      0    steps in history (QN), initial steepest desc. (CG)
   ISIF   =      2    stress and relaxation
   IWAVPR =     10    prediction:  0-non 1-charg 2-wave 3-comb
   ISYM   =      2    0-nonsym 1-usesym 2-fastsym
   LCORR  =      T    Harris-Foulkes like correction to forces

   POTIM  = 0.5000    time-step for ionic-motion
   TEIN   =    0.0    initial temperature
   TEBEG  =    0.0;   TEEND  =   0.0 temperature during run
   SMASS  =  -3.00    Nose mass-parameter (am)
   estimated Nose-frequenzy (Omega)   =  0.10E-29 period in steps =****** mass=  -0.338E-27a.u.
   SCALEE = 1.0000    scale energy and forces
   NPACO  =    256;   APACO  = 16.0  distance and # of slots for P.C.
   PSTRESS=    0.0 pullay stress

  Mass of Ions in am
   POMASS =  87.62 50.94 16.00
  Ionic Valenz
   ZVAL   =  10.00  5.00  6.00
  Atomic Wigner-Seitz radii
  virtual crystal weights
   VCA    =   1.00  1.00  1.00
   NELECT =      33.0000    total number of electrons
   NUPDOWN=      -1.0000    fix difference up-down

 DOS related values:
[...]
 k-point 46 :   0.0641 0.5000 0.0000  plane waves:    1900
 k-point 47 :   0.0769 0.5000 0.0000  plane waves:    1900
 k-point 48 :   0.0897 0.5000 0.0000  plane waves:    1904
 k-point 49 :   0.1026 0.5000 0.0000  plane waves:    1898
 k-point 50 :   0.1154 0.5000 0.0000  plane waves:    1902
 k-point 51 :   0.1282 0.5000 0.0000  plane waves:    1902
 k-point 52 :   0.1410 0.5000 0.0000  plane waves:    1902
 k-point 53 :   0.1538 0.5000 0.0000  plane waves:    1894
 k-point 54 :   0.1667 0.5000 0.0000  plane waves:    1896
 k-point 55 :   0.1795 0.5000 0.0000  plane waves:    1896
 k-point 56 :   0.1923 0.5000 0.0000  plane waves:    1900
 k-point 57 :   0.2051 0.5000 0.0000  plane waves:    1896
 k-point 58 :   0.2179 0.5000 0.0000  plane waves:    1904
 k-point 59 :   0.2308 0.5000 0.0000  plane waves:    1910
 k-point 60 :   0.2436 0.5000 0.0000  plane waves:    1914
[...]
 k-point 85 :   0.4487 0.4487 0.0000  plane waves:    1912
 k-point 86 :   0.4359 0.4359 0.0000  plane waves:    1912
 k-point 87 :   0.4231 0.4231 0.0000  plane waves:    1913
 k-point 88 :   0.4103 0.4103 0.0000  plane waves:    1901
 k-point 89 :   0.3974 0.3974 0.0000  plane waves:    1901
 k-point 90 :   0.3846 0.3846 0.0000  plane waves:    1901
 k-point 91 :   0.3718 0.3718 0.0000  plane waves:    1897
 k-point 92 :   0.3590 0.3590 0.0000  plane waves:    1895
 k-point 93 :   0.3462 0.3462 0.0000  plane waves:    1899
 k-point 94 :   0.3333 0.3333 0.0000  plane waves:    1903
 k-point 95 :   0.3205 0.3205 0.0000  plane waves:    1899
 k-point 96 :   0.3077 0.3077 0.0000  plane waves:    1887
 k-point 97 :   0.2949 0.2949 0.0000  plane waves:    1891
 k-point 98 :   0.2821 0.2821 0.0000  plane waves:    1895
 k-point 99 :   0.2692 0.2692 0.0000  plane waves:    1897
 k-point ** :   0.2564 0.2564 0.0000  plane waves:    1893
 k-point ** :   0.2436 0.2436 0.0000  plane waves:    1895
 k-point ** :   0.2308 0.2308 0.0000  plane waves:    1901
 k-point ** :   0.2179 0.2179 0.0000  plane waves:    1897
 k-point ** :   0.2051 0.2051 0.0000  plane waves:    1893
 k-point ** :   0.1923 0.1923 0.0000  plane waves:    1897
 k-point ** :   0.1795 0.1795 0.0000  plane waves:    1901
 k-point ** :   0.1667 0.1667 0.0000  plane waves:    1893
 k-point ** :   0.1538 0.1538 0.0000  plane waves:    1897
 k-point ** :   0.1410 0.1410 0.0000  plane waves:    1893
 k-point ** :   0.1282 0.1282 0.0000  plane waves:    1889
 k-point ** :   0.1154 0.1154 0.0000  plane waves:    1893
 k-point ** :   0.1026 0.1026 0.0000  plane waves:    1897
 k-point ** :   0.0897 0.0897 0.0000  plane waves:    1895
 k-point ** :   0.0769 0.0769 0.0000  plane waves:    1895
 k-point ** :   0.0641 0.0641 0.0000  plane waves:    1899
 k-point ** :   0.0513 0.0513 0.0000  plane waves:    1899
 k-point ** :   0.0385 0.0385 0.0000  plane waves:    1901
 k-point ** :   0.0256 0.0256 0.0000  plane waves:    1901
 k-point ** :   0.0128 0.0128 0.0000  plane waves:    1901
 k-point ** :   0.0000 0.0000 0.0000  plane waves:    1935
 k-point ** :   0.0000 0.0000 0.0000  plane waves:    1935
 k-point ** :   0.0128 0.0128 0.0128  plane waves:    1899
 k-point ** :   0.0256 0.0256 0.0256  plane waves:    1899
 k-point ** :   0.0385 0.0385 0.0385  plane waves:    1899
 k-point ** :   0.0513 0.0513 0.0513  plane waves:    1893
 k-point ** :   0.0641 0.0641 0.0641  plane waves:    1893
 k-point ** :   0.0769 0.0769 0.0769  plane waves:    1899
 k-point ** :   0.0897 0.0897 0.0897  plane waves:    1896
 k-point ** :   0.1026 0.1026 0.1026  plane waves:    1899
 k-point ** :   0.1154 0.1154 0.1154  plane waves:    1899
 k-point ** :   0.1282 0.1282 0.1282  plane waves:    1899
 k-point ** :   0.1410 0.1410 0.1410  plane waves:    1893
 k-point ** :   0.1538 0.1538 0.1538  plane waves:    1905
 k-point ** :   0.1667 0.1667 0.1667  plane waves:    1905
 k-point ** :   0.1795 0.1795 0.1795  plane waves:    1905
 k-point ** :   0.1923 0.1923 0.1923  plane waves:    1893
 k-point ** :   0.2051 0.2051 0.2051  plane waves:    1893
 k-point ** :   0.2179 0.2179 0.2179  plane waves:    1899
 k-point ** :   0.2308 0.2308 0.2308  plane waves:    1899
 k-point ** :   0.2436 0.2436 0.2436  plane waves:    1899
 k-point ** :   0.2564 0.2564 0.2564  plane waves:    1902
 k-point ** :   0.2692 0.2692 0.2692  plane waves:    1902
 k-point ** :   0.2821 0.2821 0.2821  plane waves:    1902
 k-point ** :   0.2949 0.2949 0.2949  plane waves:    1902
 k-point ** :   0.3077 0.3077 0.3077  plane waves:    1899
 k-point ** :   0.3205 0.3205 0.3205  plane waves:    1890
 k-point ** :   0.3333 0.3333 0.3333  plane waves:    1896
 k-point ** :   0.3462 0.3462 0.3462  plane waves:    1884
 k-point ** :   0.3590 0.3590 0.3590  plane waves:    1893
 k-point ** :   0.3718 0.3718 0.3718  plane waves:    1896
 k-point ** :   0.3846 0.3846 0.3846  plane waves:    1884
 k-point ** :   0.3974 0.3974 0.3974  plane waves:    1884
 k-point ** :   0.4103 0.4103 0.4103  plane waves:    1896
 k-point ** :   0.4231 0.4231 0.4231  plane waves:    1890
 k-point ** :   0.4359 0.4359 0.4359  plane waves:    1880
 k-point ** :   0.4487 0.4487 0.4487  plane waves:    1880
 k-point ** :   0.4615 0.4615 0.4615  plane waves:    1880
 k-point ** :   0.4744 0.4744 0.4744  plane waves:    1880
 k-point ** :   0.4872 0.4872 0.4872  plane waves:    1904
[...]
 k-point ** :   0.1795 0.5000 0.1795  plane waves:    1904
 k-point ** :   0.1667 0.5000 0.1667  plane waves:    1918
 k-point ** :   0.1538 0.5000 0.1538  plane waves:    1904
 k-point ** :   0.1410 0.5000 0.1410  plane waves:    1904
 k-point ** :   0.1282 0.5000 0.1282  plane waves:    1906
 k-point ** :   0.1154 0.5000 0.1154  plane waves:    1906
 k-point ** :   0.1026 0.5000 0.1026  plane waves:    1904
 k-point ** :   0.0897 0.5000 0.0897  plane waves:    1912
 k-point ** :   0.0769 0.5000 0.0769  plane waves:    1908
 k-point ** :   0.0641 0.5000 0.0641  plane waves:    1908
 k-point ** :   0.0513 0.5000 0.0513  plane waves:    1904
 k-point ** :   0.0385 0.5000 0.0385  plane waves:    1896
 k-point ** :   0.0256 0.5000 0.0256  plane waves:    1904
 k-point ** :   0.0128 0.5000 0.0128  plane waves:    1892
 k-point ** :   0.0000 0.5000 0.0000  plane waves:    1888

 maximum and minimum number of plane-waves per node :      1935     1876

 maximum number of plane-waves:      1935
 maximum index in each direction:
   IXMAX=    7   IYMAX=    7   IZMAX=    7
   IXMIN=   -8   IYMIN=   -8   IZMIN=   -8

 serial   3D FFT for wavefunctions
 parallel 3D FFT for charge:
    minimum data exchange during FFTs selected (reduces bandwidth)

 initial charge density was supplied:
 number of electron      33.0000001 magnetization
 keeping initial charge density in first step

 Maximum index for augmentation-charges        28675 (set IRDMAX)

 First call to EWALD:  gamma=   0.461
 Maximum number of real-space cells 3x 3x 3
 Maximum number of reciprocal cells 3x 3x 3

--------------------------------------- Iteration      1(   1)  ---------------------------------------

 eigenvalue-minimisations  : 14843
 total energy-change (2. order) :-0.3901948E+02  (-0.1792517E-05)
 number of electron      33.0000001 magnetization
 augmentation part       33.0000001 magnetization

 Free energy of the ion-electron system (eV)
  alpha Z        PSCENC =       180.95685896
  Ewald energy   TEWEN  =     -2047.90029510
  -Hartree energ DENC   =      -423.63703842
  -exchange      EXHF   =         0.00000000
  -V(xc)+E(xc)   XCENC  =        77.78645293
  PAW double counting   =      3876.54817285    -3825.26112940
  entropy T*S    EENTRO =        -0.04228687
  eigenvalues    EBANDS =      -184.12289009
  atomic energy  EATOM  =      2306.65267270
  Solvation  Ediel_sol  =         0.00000000
  free energy    TOTEN  =       -39.01948245 eV

  energy without entropy =      -38.97719558  energy(sigma->0) =      -38.99833901

--------------------------------------- Iteration      1(   2)  ---------------------------------------

 eigenvalue-minimisations  : 13778
 total energy-change (2. order) :-0.8033580E-06  (-0.5966918E-06)
 number of electron      33.0000001 magnetization
 augmentation part       33.0000001 magnetization

 Free energy of the ion-electron system (eV)
  alpha Z        PSCENC =       180.95685896
  Ewald energy   TEWEN  =     -2047.90029510
  -Hartree energ DENC   =      -423.63703842
  -exchange      EXHF   =         0.00000000
  -V(xc)+E(xc)   XCENC  =        77.78645293
  PAW double counting   =      3876.54817285    -3825.26112940
  entropy T*S    EENTRO =        -0.04228687
  eigenvalues    EBANDS =      -184.12289089
  atomic energy  EATOM  =      2306.65267270
  Solvation  Ediel_sol  =         0.00000000
  free energy    TOTEN  =       -39.01948325 eV

  energy without entropy =      -38.97719638  energy(sigma->0) =      -38.99833982

 average (electrostatic) potential at core
  the test charge radii are     1.1929  1.2064  0.7215
  (the norm of the test charge is              1.0000)
       1 -34.8661       2 -42.7904       3 -71.6909       4 -71.6909       5 -71.6909

 E-fermi :   4.5692     XC(G=0): -11.7198     alpha+bet :-13.3782

 k-point     1 :       0.0000    0.0000    0.0000
  band No.  band energies     occupation
      1     -29.0569      2.00000
      2     -14.3098      2.00000
      3     -13.0978      2.00000
      4     -13.0978      2.00000
      5     -11.0916      2.00000
      6     -11.0916      2.00000
      7     -11.0916      2.00000
      8       0.1628      2.00000
      9       0.1628      2.00000
     10       0.1628      2.00000
     11       2.1393      2.00000
     12       2.1393      2.00000
     13       2.1393      2.00000
     14       2.9857      2.00000
     15       2.9857      2.00000
     16       2.9857      2.00000
     17       4.3087      1.93460
     18       4.3087      1.93460
     19       4.3087      1.93460
     20       6.4873      0.00000
     21       6.4873      0.00000
     22       8.8273      0.00000
     23       8.8273      0.00000
     24       9.9190      0.00000
     25      11.8629      0.00000
     26      11.8629      0.00000
     27      11.8629      0.00000
     28      18.4671      0.00000
     29      20.8041      0.00000
     30      20.8041      0.00000
     31      20.8041      0.00000
     32      24.5557      0.00000
     33      24.5557      0.00000
     34      24.5557      0.00000
     35      25.0002      0.00000
     36      25.0002      0.00000
     37      25.4293      0.00000
     38      26.7445      0.00000
     39      26.7445      0.00000
     40      26.7445      0.00000
     41      30.4342      0.00000
     42      30.4342      0.00000
     43      30.4343      0.00000
     44      34.2923      0.00000
     45      34.3463      0.00000
     46      34.4702      0.00000
     47      34.4862      0.00000
     48      40.9680      0.00000

[...]

 k-point   200 :       0.0000    0.5000    0.0000
  band No.  band energies     occupation
      1     -29.0261      2.00000
      2     -14.4909      2.00000
      3     -13.0504      2.00000
      4     -12.9892      2.00000
      5     -11.0277      2.00000
      6     -11.0277      2.00000
      7     -10.4664      2.00000
      8      -1.3538      2.00000
      9       0.1350      2.00000
     10       0.1350      2.00000
     11       0.7811      2.00000
     12       0.7958      2.00000
     13       0.7958      2.00000
     14       1.2563      2.00000
     15       2.5329      2.00000
     16       2.5329      2.00000
     17       4.4311      1.67139
     18       6.2499      0.00000
     19       6.2499      0.00000
     20       6.5036      0.00000
     21       8.7888      0.00000
     22      10.8525      0.00000
     23      11.0408      0.00000
     24      11.6499      0.00000
     25      13.1601      0.00000
     26      13.1601      0.00000
     27      14.0603      0.00000
     28      15.5911      0.00000
     29      18.3902      0.00000
     30      20.6558      0.00000
     31      20.6559      0.00000
     32      21.5778      0.00000
     33      22.6859      0.00000
     34      22.6859      0.00000
     35      23.3949      0.00000
     36      24.7851      0.00000
     37      25.3302      0.00000
     38      25.6709      0.00000
     39      26.6454      0.00000
     40      26.6457      0.00000
     41      29.7390      0.00000
     42      30.4915      0.00000
     43      30.9244      0.00000
     44      32.6549      0.00000
     45      38.6621      0.00000
     46      39.2483      0.00000
     47      47.6760      0.00000
     48      49.6890      0.00000

 soft charge-density along one line, spin component           1
         0         1         2         3         4         5         6         7         8         9
 total charge-density along one line

------------------------ aborting loop because EDIFF is reached ----------------------------------------

 total charge

# of ion       s       p       d       tot
    1        1.996   5.829   0.191   8.016
    2        0.504   1.210   3.346   5.060
    3        1.530   3.746   0.000   5.275
    4        1.568   3.312   0.000   4.880
    5        1.547   3.556   0.000   5.104
tot          7.145  17.653   3.538  28.336

  FORCE on cell =-STRESS in cart. coord.  units (eV):
  Direction    XX          YY          ZZ          XY          YZ          ZX
  Alpha Z   180.95686   180.95686   180.95686
  Ewald    -682.63392  -682.63392  -682.63392    -0.00000     0.00000     0.00000
  Hartree   144.72894   144.72894   144.72894    -0.00000    -0.00000    -0.00000
  E(xc)    -149.33615  -149.33615  -149.33615    -0.00000    -0.00000    -0.00000
  Local       7.23998     7.23998     7.23998    -0.00000     0.00000    -0.00000
  n-local  -109.90047  -112.24788  -107.68861    -0.29254    -0.14259    -0.28747
  augment    44.28555    44.28555    44.28555     0.00000     0.00000     0.00000
  Kinetic   572.72044   556.15766   575.79873    -1.23457    -0.66716    -1.39150
  Fock        0.00000     0.00000     0.00000     0.00000     0.00000     0.00000
  Total       3.52121     3.52121     3.52121    -0.00000     0.00000    -0.00000
  in kB      99.12860    99.12860    99.12860    -0.00000     0.00000    -0.00000

 VOLUME and BASIS-vectors are now :
  energy-cutoff  :      600.00
  volume of cell :       56.91
      direct lattice vectors                 reciprocal lattice vectors
     3.846520000  0.000000000  0.000000000     0.259975250  0.000000000  0.000000000
     0.000000000  3.846520000  0.000000000     0.000000000  0.259975250  0.000000000
     0.000000000  0.000000000  3.846520000     0.000000000  0.000000000  0.259975250

  length of vectors
     3.846520000  3.846520000  3.846520000     0.259975250  0.259975250  0.259975250

 FORCES acting on ions
    electron-ion (+dipol)            ewald-force                    non-local-force                 convergence-correction
   -.411E-14 -.425E-14 -.677E-14   -.479E-14 -.313E-14 -.318E-14   0.000E+00 0.000E+00 0.000E+00   -.352E-14 0.227E-13 -.151E-13
   0.328E-13 -.842E-12 -.162E-12   -.289E-14 -.187E-14 0.208E-15   0.000E+00 0.000E+00 0.000E+00   -.341E-15 -.120E-13 -.247E-13
   0.160E-12 -.146E-11 -.140E-11   0.406E-14 -.102E-14 0.290E-15   0.000E+00 0.000E+00 0.000E+00   0.270E-13 -.230E-13 0.460E-13
   0.161E-12 -.980E-14 -.203E-11   0.190E-14 0.339E-14 0.147E-14   0.000E+00 0.000E+00 0.000E+00   -.139E-13 0.212E-13 -.349E-14
   -.949E-14 0.163E-12 0.156E-12   0.166E-14 0.231E-14 0.145E-14   0.000E+00 0.000E+00 0.000E+00   -.398E-14 -.402E-13 -.265E-13
   0.341E-12 -.215E-11 -.345E-11   -.550E-16 -.318E-15 0.244E-15   0.000E+00 0.000E+00 0.000E+00   0.523E-14 -.313E-13 -.237E-13

 POSITION                                       TOTAL-FORCE (eV/Angst)
      0.00000      0.00000      0.00000         0.000000      0.000000      0.000000
      1.92326      1.92326      1.92326         0.000000      0.000000      0.000000
      1.92326      1.92326      0.00000         0.000000      0.000000      0.000000
      1.92326      0.00000      1.92326         0.000000      0.000000      0.000000
      0.00000      1.92326      1.92326         0.000000      0.000000      0.000000
    total drift:                                0.000000     -0.000000     -0.000000

  FREE ENERGIE OF THE ION-ELECTRON SYSTEM (eV)
  free  energy   TOTEN  =       -39.01948325 eV

  energy  without entropy=      -38.97719638  energy(sigma->0) =      -38.99833982

 writing wavefunctions

 total charge

# of ion       s       p       d       tot
    1        1.996   5.829   0.191   8.016
    2        0.504   1.210   3.346   5.060
    3        1.530   3.746   0.000   5.275
    4        1.568   3.312   0.000   4.880
    5        1.547   3.556   0.000   5.104
tot          7.145  17.653   3.538  28.336